NAME: kroC100
COMMENT: solucao exata obtida pelo professor utilizando um solver branch-and-cut
COMMENT: 12.466s
TYPE: TOUR
DIMENSION: 100
TOTAL_WEIGHT: 20749
TOUR_SECTION
10
92
19
99
93
04
60
69
03
73
59
41
89
21
23
70
76
91
94
95
50
62
83
72
86
05
43
56
71
38
39
28
88
98
58
34
90
25
17
08
22
75
06
54
02
35
68
30
77
80
65
31
47
67
55
42
20
64
79
13
15
27
85
01
53
40
12
49
18
29
46
24
32
61
26
07
82
78
09
37
16
51
63
44
66
48
84
11
52
87
96
97
81
45
33
100
74
57
36
14
EOF